HmaxDs = 1.500000
HmaxUB_percent = 1.053770
HmaxUB_real = 5862.492832
FTnetDs = 1.500000
FTnetUB_percent = 1.965964
FTnetUB_real = 16654.977309
TIFgap = 0.100000
LimCIPF = 90.922923
SCIP version 1.1.0 [precision: 8 byte] [memory: block] [mode: optimized] [LP solver: Clp 1.8.2]
Copyright (c) 2002-2008 Konrad-Zuse-Zentrum fuer Informationstechnik Berlin (ZIB)

reading user parameter file </home/fabio/docs/hierarquia/models/scip.set>

read problem <data.N30.I1.s1.cluster1.T5.GL1.W5.TIFgap0.1.mps.gz>
============

original problem has 815 variables (410 bin, 0 int, 0 impl, 405 cont) and 262 constraints

solve problem
=============

presolving:
(round 1) 3 del vars, 3 del conss, 4 chg bounds, 0 chg sides, 100 chg coeffs, 0 upgd conss, 0 impls, 100 clqs
(round 2) 5 del vars, 3 del conss, 4 chg bounds, 1 chg sides, 100 chg coeffs, 0 upgd conss, 0 impls, 100 clqs
(round 3) 5 del vars, 3 del conss, 4 chg bounds, 3 chg sides, 100 chg coeffs, 0 upgd conss, 0 impls, 100 clqs
(round 4) 5 del vars, 4 del conss, 4 chg bounds, 3 chg sides, 100 chg coeffs, 101 upgd conss, 0 impls, 100 clqs
   (0.1s) probing: 101/410 (24.6%) - 0 fixings, 0 aggregations, 0 implications, 0 bound changes
   (0.1s) probing aborted: 100/100 successive totally useless probings
presolving (5 rounds):
 5 deleted vars, 4 deleted constraints, 4 tightened bounds, 0 added holes, 3 changed sides, 100 changed coefficients
 0 implications, 100 cliques
presolved problem has 810 variables (410 bin, 0 int, 0 impl, 400 cont) and 258 constraints
      1 constraints of type <knapsack>
    100 constraints of type <setppc>
    157 constraints of type <linear>
Presolving Time: 0.05

 time | node  | left  |LP iter| mem |mdpt |frac |vars |cons |ccons|cols |rows |cuts |confs|strbr|  dualbound   | primalbound  |  gap   
  0.1s|     1 |     0 |   258 |1951k|   0 | 116 | 810 | 258 | 258 | 810 | 258 |   0 |   0 |   0 | 1.325916e+01 |      --      |    Inf 
  0.7s|     1 |     0 |  3804 |2169k|   0 | 102 | 810 | 258 | 258 | 810 | 301 |  43 |   0 |   0 | 1.795708e+02 |      --      |    Inf 
  1.2s|     1 |     0 |  4497 |2357k|   0 | 116 | 810 | 258 | 258 | 810 | 320 |  62 |   0 |   0 | 3.956448e+03 |      --      |    Inf 
  1.6s|     1 |     0 |  4985 |2454k|   0 | 108 | 810 | 258 | 258 | 810 | 352 |  94 |   0 |   0 | 3.986888e+03 |      --      |    Inf 
  2.1s|     1 |     0 |  5435 |2514k|   0 | 118 | 810 | 258 | 258 | 810 | 381 | 123 |   0 |   0 | 4.056677e+03 |      --      |    Inf 
  2.6s|     1 |     0 |  5907 |2601k|   0 | 115 | 810 | 258 | 258 | 810 | 409 | 151 |   0 |   0 | 4.257817e+03 |      --      |    Inf 
  3.2s|     1 |     0 |  6278 |2664k|   0 | 118 | 810 | 258 | 258 | 810 | 434 | 176 |   0 |   0 | 4.284836e+03 |      --      |    Inf 
  3.7s|     1 |     0 |  6608 |2743k|   0 | 117 | 810 | 258 | 258 | 810 | 454 | 196 |   0 |   0 | 4.299461e+03 |      --      |    Inf 
  4.2s|     1 |     0 |  6967 |2805k|   0 | 125 | 810 | 258 | 258 | 810 | 474 | 216 |   0 |   0 | 4.326695e+03 |      --      |    Inf 
  4.6s|     1 |     0 |  7149 |2823k|   0 | 130 | 810 | 258 | 258 | 810 | 484 | 226 |   0 |   0 | 4.330687e+03 |      --      |    Inf 
  5.1s|     1 |     0 |  7393 |2834k|   0 | 129 | 810 | 258 | 258 | 810 | 493 | 235 |   0 |   0 | 4.336949e+03 |      --      |    Inf 
 11.3s|     1 |     2 |  7393 |2840k|   0 | 129 | 810 | 258 | 258 | 810 | 493 | 235 |   0 |  18 | 4.336949e+03 |      --      |    Inf 
 46.3s|   100 |    78 | 44977 |3004k|  17 |  43 | 810 | 275 | 180 | 810 | 376 | 235 |  17 |1110 | 4.354417e+03 |      --      |    Inf 
 62.5s|   200 |   146 | 92525 |3129k|  23 |  20 | 810 | 281 | 176 | 810 | 376 | 235 |  23 |1281 | 4.354417e+03 |      --      |    Inf 
 71.9s|   300 |   208 |119245 |3218k|  25 | 113 | 810 | 287 | 264 | 810 | 376 | 235 |  29 |1370 | 4.354417e+03 |      --      |    Inf 
 time | node  | left  |LP iter| mem |mdpt |frac |vars |cons |ccons|cols |rows |cuts |confs|strbr|  dualbound   | primalbound  |  gap   
 81.0s|   400 |   276 |145573 |3334k|  25 |   - | 810 | 287 | 157 | 810 | 376 | 235 |  29 |1392 | 4.355395e+03 |      --      |    Inf 
 90.7s|   500 |   328 |172197 |3410k|  27 |  30 | 810 | 292 | 157 | 810 | 376 | 235 |  34 |1471 | 4.355395e+03 |      --      |    Inf 
 97.9s|   600 |   386 |193052 |3487k|  31 |  24 | 810 | 295 | 140 | 810 | 376 | 235 |  37 |1560 | 4.355395e+03 |      --      |    Inf 
  103s|   700 |   430 |209187 |3556k|  31 | 113 | 810 | 300 | 228 | 810 | 376 | 235 |  42 |1591 | 4.355673e+03 |      --      |    Inf 
  111s|   800 |   484 |223445 |3654k|  31 |   - | 810 | 301 | 173 | 810 | 376 | 235 |  43 |1631 | 4.355784e+03 |      --      |    Inf 
  117s|   900 |   538 |238855 |3752k|  31 |  12 | 810 | 308 | 183 | 810 | 376 | 235 |  50 |1634 | 4.356592e+03 |      --      |    Inf 
  122s|  1000 |   588 |254696 |3838k|  31 |  26 | 810 | 315 | 165 | 810 | 376 | 235 |  57 |1669 | 4.356592e+03 |      --      |    Inf 
  132s|  1100 |   626 |276429 |3900k|  37 |  19 | 810 | 323 | 149 | 810 | 376 | 235 |  65 |1748 | 4.356592e+03 |      --      |    Inf 
  135s|  1200 |   664 |286050 |3972k|  37 |   8 | 810 | 326 | 130 | 810 | 376 | 235 |  68 |1808 | 4.356592e+03 |      --      |    Inf 
  146s|  1300 |   710 |310297 |4054k|  37 |  12 | 810 | 330 | 172 | 810 | 376 | 235 |  72 |1865 | 4.356592e+03 |      --      |    Inf 
  161s|  1400 |   748 |345665 |4122k|  37 |  15 | 810 | 339 | 207 | 810 | 376 | 235 |  81 |1925 | 4.357736e+03 |      --      |    Inf 
  168s|  1500 |   796 |367911 |4199k|  37 |  20 | 810 | 346 | 199 | 810 | 376 | 235 |  88 |1962 | 4.358259e+03 |      --      |    Inf 
  175s|  1600 |   830 |386938 |4253k|  37 |  34 | 810 | 357 | 201 | 810 | 376 | 235 |  99 |2010 | 4.358259e+03 |      --      |    Inf 
  183s|  1700 |   879 |410199 |4334k|  37 |  17 | 810 | 361 | 122 | 810 | 376 | 235 | 103 |2094 | 4.358259e+03 |      --      |    Inf 
  190s|  1800 |   921 |432039 |4403k|  37 |  63 | 810 | 361 | 207 | 810 | 376 | 235 | 103 |2168 | 4.358396e+03 |      --      |    Inf 
 time | node  | left  |LP iter| mem |mdpt |frac |vars |cons |ccons|cols |rows |cuts |confs|strbr|  dualbound   | primalbound  |  gap   
  197s|  1900 |   963 |452473 |4485k|  37 |  55 | 810 | 366 | 235 | 810 | 376 | 235 | 108 |2214 | 4.358396e+03 |      --      |    Inf 
  202s|  2000 |  1013 |468016 |4554k|  37 |  30 | 810 | 366 | 191 | 810 | 376 | 235 | 108 |2237 | 4.358396e+03 |      --      |    Inf 
  206s|  2100 |  1057 |482781 |4620k|  37 |  14 | 810 | 373 | 174 | 810 | 376 | 235 | 115 |2240 | 4.358396e+03 |      --      |    Inf 
  210s|  2200 |  1097 |494671 |4683k|  37 |   - | 810 | 374 | 198 | 810 | 376 | 235 | 116 |2245 | 4.358698e+03 |      --      |    Inf 
  216s|  2300 |  1141 |512168 |4755k|  37 |  36 | 810 | 376 | 206 | 810 | 376 | 235 | 118 |2263 | 4.358712e+03 |      --      |    Inf 
  222s|  2400 |  1183 |529883 |4823k|  37 |  90 | 810 | 383 | 225 | 810 | 376 | 235 | 125 |2332 | 4.358712e+03 |      --      |    Inf 
  231s|  2500 |  1229 |553638 |4908k|  37 |  23 | 810 | 384 | 178 | 810 | 376 | 235 | 126 |2401 | 4.359621e+03 |      --      |    Inf 
  242s|  2600 |  1275 |576807 |4990k|  37 |   - | 810 | 393 | 208 | 810 | 376 | 235 | 135 |2482 | 4.359738e+03 |      --      |    Inf 
  252s|  2700 |  1317 |604457 |5057k|  37 |  43 | 810 | 403 | 239 | 810 | 376 | 235 | 145 |2516 | 4.359856e+03 |      --      |    Inf 
  257s|  2800 |  1359 |620784 |5119k|  37 |   - | 810 | 404 | 186 | 810 | 376 | 235 | 146 |2539 | 4.359856e+03 |      --      |    Inf 
  263s|  2900 |  1399 |641927 |5210k|  37 |  52 | 810 | 407 | 227 | 810 | 376 | 235 | 149 |2565 | 4.359932e+03 |      --      |    Inf 
  269s|  3000 |  1443 |661935 |5305k|  37 |   - | 810 | 413 | 210 | 810 | 376 | 235 | 155 |2571 | 4.360115e+03 |      --      |    Inf 
  280s|  3100 |  1481 |689881 |5380k|  42 |  10 | 810 | 419 | 150 | 810 | 376 | 235 | 161 |2642 | 4.360115e+03 |      --      |    Inf 
  291s|  3200 |  1519 |715669 |5453k|  42 |  94 | 810 | 430 | 250 | 810 | 376 | 235 | 172 |2719 | 4.360115e+03 |      --      |    Inf 
  298s|  3300 |  1557 |738077 |5524k|  42 |  66 | 810 | 443 | 233 | 810 | 376 | 235 | 185 |2785 | 4.360176e+03 |      --      |    Inf 
 time | node  | left  |LP iter| mem |mdpt |frac |vars |cons |ccons|cols |rows |cuts |confs|strbr|  dualbound   | primalbound  |  gap   
  307s|  3400 |  1603 |761638 |5584k|  42 |   - | 810 | 448 | 201 | 810 | 376 | 235 | 190 |2826 | 4.360176e+03 |      --      |    Inf 
  316s|  3500 |  1649 |784778 |5658k|  42 |  14 | 810 | 459 | 190 | 810 | 376 | 235 | 201 |2895 | 4.360176e+03 |      --      |    Inf 
  323s|  3600 |  1693 |806085 |5737k|  42 |  42 | 810 | 466 | 258 | 810 | 376 | 235 | 208 |2921 | 4.360702e+03 |      --      |    Inf 
  330s|  3700 |  1731 |828530 |5804k|  42 |  28 | 810 | 471 | 214 | 810 | 376 | 235 | 213 |2926 | 4.360702e+03 |      --      |    Inf 
  336s|  3800 |  1773 |849049 |5870k|  42 |  42 | 810 | 479 | 244 | 810 | 376 | 235 | 221 |2927 | 4.360702e+03 |      --      |    Inf 
  342s|  3900 |  1819 |870681 |5950k|  42 |   - | 810 | 479 | 206 | 810 | 376 | 235 | 221 |2928 | 4.360803e+03 |      --      |    Inf 
  349s|  4000 |  1861 |894717 |6021k|  42 |  52 | 810 | 481 | 277 | 810 | 376 | 235 | 223 |2930 | 4.361002e+03 |      --      |    Inf 
  353s|  4100 |  1899 |905065 |6075k|  42 |   3 | 810 | 488 | 152 | 810 | 376 | 235 | 230 |2930 | 4.361002e+03 |      --      |    Inf 
  358s|  4200 |  1937 |921668 |6134k|  42 |  13 | 810 | 490 | 163 | 810 | 376 | 235 | 232 |2930 | 4.361310e+03 |      --      |    Inf 
  363s|  4300 |  1985 |939966 |6215k|  42 |   - | 810 | 495 | 209 | 810 | 376 | 235 | 237 |2932 | 4.361310e+03 |      --      |    Inf 
  367s|  4400 |  2013 |956873 |6267k|  42 |   - | 810 | 498 | 168 | 810 | 376 | 235 | 240 |2934 | 4.361396e+03 |      --      |    Inf 
  378s|  4500 |  2043 |983689 |6330k|  42 |  59 | 810 | 503 | 218 | 810 | 376 | 235 | 245 |2934 | 4.361465e+03 |      --      |    Inf 
  385s|  4600 |  2093 |  1002k|6409k|  42 |  31 | 810 | 516 | 170 | 810 | 376 | 235 | 258 |2937 | 4.361465e+03 |      --      |    Inf 
  389s|  4700 |  2137 |  1017k|6485k|  42 |   - | 810 | 519 | 252 | 810 | 376 | 235 | 261 |2938 | 4.361465e+03 |      --      |    Inf 
  396s|  4800 |  2173 |  1043k|6555k|  42 |  61 | 810 | 527 | 338 | 810 | 376 | 235 | 269 |2940 | 4.361611e+03 |      --      |    Inf 
 time | node  | left  |LP iter| mem |mdpt |frac |vars |cons |ccons|cols |rows |cuts |confs|strbr|  dualbound   | primalbound  |  gap   
  404s|  4900 |  2205 |  1066k|6611k|  42 |   - | 810 | 532 | 179 | 810 | 376 | 235 | 274 |2950 | 4.361922e+03 |      --      |    Inf 
  420s|  5000 |  2249 |  1091k|6679k|  42 |  97 | 810 | 539 | 433 | 810 | 376 | 235 | 281 |3039 | 4.361930e+03 |      --      |    Inf 
  428s|  5100 |  2295 |  1118k|6760k|  42 |  35 | 810 | 541 | 264 | 810 | 376 | 235 | 283 |3107 | 4.362118e+03 |      --      |    Inf 
  435s|  5200 |  2333 |  1138k|6831k|  42 |  24 | 810 | 551 | 378 | 810 | 376 | 235 | 293 |3176 | 4.362144e+03 |      --      |    Inf 
(node 5276) unresolved numerical troubles in LP 7521

SCIP Status        : solving was interrupted [time limit reached]
Solving Time (sec) : 10000.02
Solving Nodes      : 5276
Primal Bound       : +1.00000000000000e+20 (0 solutions)
Dual Bound         : +4.36214429489536e+03
Gap                : infinite

primal solution:
================

no solution available

Statistics
==========

SCIP Status        : solving was interrupted [time limit reached]
Solving Time       :   10000.02
Original Problem   :
  Problem name     : labtel
  Variables        : 815 (410 binary, 0 integer, 0 implicit integer, 405 continuous)
  Constraints      : 262 initial, 262 maximal
Presolved Problem  :
  Problem name     : t_labtel
  Variables        : 810 (410 binary, 0 integer, 0 implicit integer, 400 continuous)
  Constraints      : 258 initial, 562 maximal
Presolvers         :       Time  FixedVars   AggrVars   ChgTypes  ChgBounds   AddHoles    DelCons   ChgSides   ChgCoefs
  trivial          :       0.00          0          0          0          0          0          0          0          0
  dualfix          :       0.00          0          0          0          0          0          0          0          0
  boundshift       :       0.00          0          0          0          0          0          0          0          0
  inttobinary      :       0.00          0          0          0          0          0          0          0          0
  implics          :       0.00          0          0          0          0          0          0          0          0
  probing          :       0.03          0          0          0          0          0          0          0          0
  knapsack         :       0.00          0          0          0          0          0          0          0          0
  setppc           :       0.01          0          0          0          0          0          0          0          0
  linear           :       0.00          0          5          0          4          0          4          3        100
  logicor          :       0.00          0          0          0          0          0          0          0          0
  root node        :          -          0          -          -          0          -          -          -          -
Constraints        :     Number  #Separate #Propagate    #EnfoLP    #EnfoPS    Cutoffs    DomReds       Cuts      Conss   Children
  integral         :          0          0          0       3858          0          2         48          0          0       7640
  knapsack         :          1         11      12628          0          1          0       2942          0          0          0
  setppc           :        100         11      13688          0          1          8      69619          0          0          0
  linear           :        157         11      13680          0          0         29      74633          1          0          0
  logicor          :          0+         0       3546          0          0         10        395          0          0          0
  countsols        :          0          0          0          0          1          0          0          0          0          0
Constraint Timings :  TotalTime   Separate  Propagate     EnfoLP     EnfoPS
  integral         :      63.14       0.00       0.00      63.14       0.00
  knapsack         :       0.06       0.00       0.06       0.00       0.00
  setppc           :       0.46       0.00       0.46       0.00       0.00
  linear           :       2.22       0.04       2.18       0.00       0.00
  logicor          :       0.08       0.00       0.08       0.00       0.00
  countsols        :       0.00       0.00       0.00       0.00       0.00
Propagators        :       Time      Calls    Cutoffs    DomReds
  rootredcost      :       0.02          0          0          0
  pseudoobj        :       0.33      13541          0          0
Conflict Analysis  :       Time      Calls    Success  Conflicts   Literals    Reconvs ReconvLits   LP Iters
  propagation      :       0.00         47         47        112       16.6          1        7.0          -
  infeasible LP    :       0.90       1474        125        899       46.6          0        0.0          0
  bound exceed. LP :       0.00          0          0          0        0.0          0        0.0          0
  strong branching :       0.00          0          0          0        0.0          0        0.0          0
  pseudo solution  :       0.00          0          0          0        0.0          0        0.0          -
  applied globally :          -          -          -        304       16.8          -          -          -
  applied locally  :          -          -          -          0        0.0          -          -          -
Separators         :       Time      Calls    Cutoffs    DomReds       Cuts      Conss
  cut pool         :       0.00         10          -          -         15          -    (maximal pool size: 491)
  redcost          :       0.13       3873          0         13          0          0
  impliedbounds    :       0.00         11          0          0          0          0
  intobj           :       0.00          0          0          0          0          0
  gomory           :       0.32         11          0          0          1          0
  strongcg         :       0.26         11          0          0          0          0
  cmir             :       1.94         10          0          0        462          0
  flowcover        :       0.94         10          0          0         36          0
  clique           :       0.01         11          0          0          0          0
  zerohalf         :       0.00          0          0          0          0          0
  mcf              :       0.00          0          0          0          0          0
Pricers            :       Time      Calls       Vars
  problem variables:       0.00          0          0
Branching Rules    :       Time      Calls    Cutoffs    DomReds       Cuts      Conss   Children
  relpscost        :      63.11       3858          2         48          0          0       7640
  pscost           :       0.00          0          0          0          0          0          0
  inference        :       0.00          1          0          0          0          0          2
  mostinf          :       0.00          0          0          0          0          0          0
  leastinf         :       0.00          0          0          0          0          0          0
  fullstrong       :       0.00          0          0          0          0          0          0
  allfullstrong    :       0.00          0          0          0          0          0          0
  random           :       0.00          0          0          0          0          0          0
Primal Heuristics  :       Time      Calls      Found
  LP solutions     :       0.00          -          0
  pseudo solutions :       0.00          -          0
  oneopt           :       0.01          0          0
  crossover        :       0.00          0          0
  guideddiving     :       0.00          0          0
  linesearchdiving :       0.56          3          0
  objpscostdiving  :       0.99          2          0
  feaspump         :       0.87          2          0
  rootsoldiving    :       2.57          2          0
  coefdiving       :       0.45          4          0
  pscostdiving     :       1.08          4          0
  fracdiving       :       0.66          4          0
  veclendiving     :       0.83          4          0
  simplerounding   :       0.02          0          0
  rounding         :       0.12        822          0
  shifting         :       0.33        227          0
  intshifting      :       0.05          8          0
  fixandinfer      :       0.00          0          0
  intdiving        :       0.00          0          0
  actconsdiving    :       0.00          0          0
  octane           :       0.00          0          0
  rens             :       5.42          1          0
  rins             :       0.00          0          0
  localbranching   :       0.00          0          0
  mutation         :       0.00          0          0
  dins             :       0.00          0          0
LP                 :       Time      Calls Iterations  Iter/call   Iter/sec
  primal LP        :       0.04          1         60      60.00    1500.00
  dual LP          :    9910.76       7149   11467532    1604.07    1157.08
  barrier LP       :       0.00          0          0       0.00          -
  diving/probing LP:       7.79        371      27718      74.71    3558.15
  strong branching :      62.75       3225     282248      87.52    4497.98
    (at root node) :          -         18       2383     132.39          -
  conflict analysis:       0.00          0          0       0.00          -
B&B Tree           :
  number of runs   :          1
  nodes            :       5276
  nodes (total)    :       5276
  nodes left       :       2365
  max depth        :         42
  max depth (total):         42
  backtracks       :        354 (6.7%)
  delayed cutoffs  :          2
  repropagations   :        452 (3340 domain reductions, 2 cutoffs)
  avg switch length:       3.12
  switching time   :       1.11
Solution           :
  Solutions found  :          0 (0 improvements)
  Primal Bound     :          -
  Dual Bound       : +4.36214429489536e+03
  Gap              :   infinite
  Root Dual Bound  : +4.33694860477416e+03
